(set-info :original "/tmp/sea-umCmVZ/verisec_OpenSER__cases1_stripFullBoth_arr_false-unreach-call_true-termination.pp.ms.o.bc")
(set-info :authors "SeaHorn v.0.1.0-rc3")
(declare-rel verifier.error (Bool Bool Bool ))
(declare-rel __VERIFIER_assert@_call (Int ))
(declare-rel __VERIFIER_assert@_ret (Int ))
(declare-rel __VERIFIER_assert (Bool Bool Bool Int ))
(declare-rel main@entry ())
(declare-rel main@_bb2 (Int (Array Int Int) (Array Int Int) Int Int Int ))
(declare-rel main@_bb3 (Int Int Int (Array Int Int) (Array Int Int) Int Int ))
(declare-rel main@_bb6 (Int Int Int (Array Int Int) (Array Int Int) Int Int Int ))
(declare-rel main@verifier.error.split ())
(declare-var __VERIFIER_assert@%_call1_0 Bool )
(declare-var __VERIFIER_assert@%cond_0 Int )
(declare-var __VERIFIER_assert@_call_0 Bool )
(declare-var __VERIFIER_assert@_ret_0 Bool )
(declare-var main@%_63_0 Int )
(declare-var main@%_64_0 Int )
(declare-var main@%_65_0 Bool )
(declare-var main@%_57_0 Int )
(declare-var main@%_58_0 Int )
(declare-var main@%_59_0 Int )
(declare-var main@%_6_0 Bool )
(declare-var main@%_47_0 Int )
(declare-var main@%_48_0 Int )
(declare-var main@%_49_0 Int )
(declare-var main@%_50_0 Int )
(declare-var main@%_52_0 Int )
(declare-var main@%_53_0 Int )
(declare-var main@%_54_0 Bool )
(declare-var main@%_56_0 Bool )
(declare-var main@%_45_0 Bool )
(declare-var main@%_40_0 Int )
(declare-var main@%_41_0 Int )
(declare-var main@%_42_0 Bool )
(declare-var main@%_43_0 Int )
(declare-var main@%_38_0 Bool )
(declare-var main@%_34_0 Int )
(declare-var main@%_35_0 Int )
(declare-var main@%_36_0 Bool )
(declare-var main@%_30_0 Int )
(declare-var main@%_31_0 Int )
(declare-var main@%_32_0 Bool )
(declare-var main@%_28_0 Bool )
(declare-var main@%_23_0 Int )
(declare-var main@%_24_0 Int )
(declare-var main@%_25_0 Bool )
(declare-var main@%_26_0 Int )
(declare-var main@%_18_0 Int )
(declare-var main@%_19_0 Int )
(declare-var main@%_20_0 Bool )
(declare-var main@%_14_0 Int )
(declare-var main@%_15_0 Int )
(declare-var main@%_16_0 Bool )
(declare-var main@%_11_0 Int )
(declare-var main@%_12_0 Int )
(declare-var main@%cond.i_0 Bool )
(declare-var main@%_8_0 Bool )
(declare-var main@%_0_0 (Array Int Int) )
(declare-var main@%A.i_0 Int )
(declare-var main@%_2_0 Int )
(declare-var main@%_5_0 Bool )
(declare-var main@entry_0 Bool )
(declare-var main@%_1_0 (Array Int Int) )
(declare-var main@%str2.i_0 Int )
(declare-var main@%_3_0 (Array Int Int) )
(declare-var main@%_4_0 Int )
(declare-var main@precall_0 Bool )
(declare-var main@parse_expression_list_0 Bool )
(declare-var main@_bb2_0 Bool )
(declare-var main@%shadow.mem1.0_0 (Array Int Int) )
(declare-var main@%i.0.i_0 Int )
(declare-var main@%start.0.i_0 Int )
(declare-var main@%shadow.mem1.0_1 (Array Int Int) )
(declare-var main@%i.0.i_1 Int )
(declare-var main@%start.0.i_1 Int )
(declare-var main@%_10_0 Int )
(declare-var main@_bb12_0 Bool )
(declare-var main@%shadow.mem1.1_0 (Array Int Int) )
(declare-var main@%start.3.i_0 Int )
(declare-var main@%shadow.mem1.1_1 (Array Int Int) )
(declare-var main@%start.3.i_1 Int )
(declare-var main@_bb2_1 Bool )
(declare-var main@%shadow.mem1.0_2 (Array Int Int) )
(declare-var main@%i.0.i_2 Int )
(declare-var main@%start.0.i_2 Int )
(declare-var main@_bb3_0 Bool )
(declare-var main@%start.1.i_0 Int )
(declare-var main@%start.1.i_1 Int )
(declare-var main@_bb4_0 Bool )
(declare-var main@.critedge.i_0 Bool )
(declare-var |tuple(main@_bb4_0, main@.critedge.i_0)| Bool )
(declare-var |tuple(main@_bb3_0, main@.critedge.i_0)| Bool )
(declare-var main@%_21_0 Int )
(declare-var main@_bb3_1 Bool )
(declare-var main@%start.1.i_2 Int )
(declare-var main@_bb5_0 Bool )
(declare-var main@%.start.1.i_0 Int )
(declare-var main@_bb6_0 Bool )
(declare-var main@%j.0.i_0 Int )
(declare-var main@%j.0.i_1 Int )
(declare-var main@_bb7_0 Bool )
(declare-var main@_bb8_0 Bool )
(declare-var main@.critedge1.i_0 Bool )
(declare-var |tuple(main@_bb8_0, main@.critedge1.i_0)| Bool )
(declare-var |tuple(main@_bb6_0, main@.critedge1.i_0)| Bool )
(declare-var main@_bb9_0 Bool )
(declare-var main@%.j.0.i_0 Int )
(declare-var main@_bb10_0 Bool )
(declare-var |tuple(main@.critedge1.i_0, main@_bb10_0)| Bool )
(declare-var main@%j.1.i_0 Int )
(declare-var main@%j.1.i_1 Int )
(declare-var main@%j.1.i_2 Int )
(declare-var main@_bb11_0 Bool )
(declare-var main@%_55_0 Int )
(declare-var main@postcall2_0 Bool )
(declare-var main@%_60_0 (Array Int Int) )
(declare-var main@%_61_0 Int )
(declare-var main@.critedge2.i_0 Bool )
(declare-var |tuple(main@_bb8_0, main@.critedge2.i_0)| Bool )
(declare-var |tuple(main@_bb7_0, main@.critedge2.i_0)| Bool )
(declare-var main@%_37_0 Int )
(declare-var main@_bb6_1 Bool )
(declare-var main@%j.0.i_2 Int )
(declare-var main@precall3_0 Bool )
(declare-var main@__VERIFIER_assert_0 Bool )
(declare-var main@_bb_0 Bool )
(declare-var main@verifier.error_0 Bool )
(declare-var main@verifier.error.split_0 Bool )
(rule (verifier.error false false false))
(rule (verifier.error false true true))
(rule (verifier.error true false true))
(rule (verifier.error true true true))
(rule (__VERIFIER_assert true true true __VERIFIER_assert@%cond_0))
(rule (__VERIFIER_assert false true true __VERIFIER_assert@%cond_0))
(rule (__VERIFIER_assert false false false __VERIFIER_assert@%cond_0))
(rule (__VERIFIER_assert@_call __VERIFIER_assert@%cond_0))
(rule (=> (and (__VERIFIER_assert@_call __VERIFIER_assert@%cond_0)
         true
         (= __VERIFIER_assert@%_call1_0 (= __VERIFIER_assert@%cond_0 0))
         (not __VERIFIER_assert@%_call1_0)
         (=> __VERIFIER_assert@_ret_0
             (and __VERIFIER_assert@_ret_0 __VERIFIER_assert@_call_0))
         __VERIFIER_assert@_ret_0)
    (__VERIFIER_assert@_ret __VERIFIER_assert@%cond_0)))
(rule (=> (__VERIFIER_assert@_ret __VERIFIER_assert@%cond_0)
    (__VERIFIER_assert true false false __VERIFIER_assert@%cond_0)))
(rule main@entry)
(rule (let ((a!1 (= main@%_2_0 (+ (+ main@%A.i_0 (* 0 9)) (* 8 1))))
      (a!2 (= main@%_4_0 (+ (+ main@%A.i_0 (* 0 9)) (* 0 1)))))
(let ((a!3 (and main@entry
                true
                (> main@%str2.i_0 0)
                (> main@%A.i_0 0)
                a!1
                (or (<= main@%A.i_0 0) (> main@%_2_0 0))
                (> main@%A.i_0 0)
                (= main@%_3_0 (store main@%_0_0 main@%_2_0 0))
                a!2
                (or (<= main@%A.i_0 0) (> main@%_4_0 0))
                (not main@%_5_0)
                (=> main@precall_0 (and main@precall_0 main@entry_0))
                (=> main@parse_expression_list_0
                    (and main@parse_expression_list_0 main@precall_0))
                (=> main@parse_expression_list_0
                    (= main@%_8_0 (= main@%_4_0 0)))
                (=> main@parse_expression_list_0 (not main@%_8_0))
                (=> main@_bb2_0 (and main@_bb2_0 main@parse_expression_list_0))
                main@_bb2_0
                (=> (and main@_bb2_0 main@parse_expression_list_0)
                    (= main@%shadow.mem1.0_0 main@%_1_0))
                (=> (and main@_bb2_0 main@parse_expression_list_0)
                    (= main@%i.0.i_0 (- 1)))
                (=> (and main@_bb2_0 main@parse_expression_list_0)
                    (= main@%start.0.i_0 0))
                (=> (and main@_bb2_0 main@parse_expression_list_0)
                    (= main@%shadow.mem1.0_1 main@%shadow.mem1.0_0))
                (=> (and main@_bb2_0 main@parse_expression_list_0)
                    (= main@%i.0.i_1 main@%i.0.i_0))
                (=> (and main@_bb2_0 main@parse_expression_list_0)
                    (= main@%start.0.i_1 main@%start.0.i_0)))))
  (=> a!3
      (main@_bb2 main@%_4_0
                 main@%_3_0
                 main@%shadow.mem1.0_1
                 main@%i.0.i_1
                 main@%start.0.i_1
                 main@%str2.i_0)))))
(rule (let ((a!1 (=> main@_bb12_0 (= main@%_63_0 (+ main@%_4_0 (* main@%_10_0 1))))))
(let ((a!2 (and (main@_bb2 main@%_4_0
                           main@%_3_0
                           main@%shadow.mem1.0_0
                           main@%i.0.i_0
                           main@%start.0.i_0
                           main@%str2.i_0)
                true
                (= main@%_10_0 (+ main@%i.0.i_0 1))
                (= main@%_11_0 (+ main@%_4_0 (* main@%_10_0 1)))
                (or (<= main@%_4_0 0) (> main@%_11_0 0))
                (> main@%_4_0 0)
                (= main@%_12_0 (select main@%_3_0 main@%_11_0))
                (= main@%cond.i_0 (= main@%_12_0 0))
                (=> main@_bb12_0 (and main@_bb12_0 main@_bb2_0))
                (=> (and main@_bb12_0 main@_bb2_0) (not main@%cond.i_0))
                (=> (and main@_bb12_0 main@_bb2_0)
                    (= main@%shadow.mem1.1_0 main@%shadow.mem1.0_0))
                (=> (and main@_bb12_0 main@_bb2_0)
                    (= main@%start.3.i_0 main@%start.0.i_0))
                (=> (and main@_bb12_0 main@_bb2_0)
                    (= main@%shadow.mem1.1_1 main@%shadow.mem1.1_0))
                (=> (and main@_bb12_0 main@_bb2_0)
                    (= main@%start.3.i_1 main@%start.3.i_0))
                a!1
                (=> main@_bb12_0 (or (<= main@%_4_0 0) (> main@%_63_0 0)))
                (=> main@_bb12_0 (> main@%_4_0 0))
                (=> main@_bb12_0
                    (= main@%_64_0 (select main@%_3_0 main@%_63_0)))
                (=> main@_bb12_0 (= main@%_65_0 (= main@%_64_0 0)))
                (=> main@_bb12_0 (not main@%_65_0))
                (=> main@_bb2_1 (and main@_bb2_1 main@_bb12_0))
                main@_bb2_1
                (=> (and main@_bb2_1 main@_bb12_0)
                    (= main@%shadow.mem1.0_1 main@%shadow.mem1.1_1))
                (=> (and main@_bb2_1 main@_bb12_0)
                    (= main@%i.0.i_1 main@%_10_0))
                (=> (and main@_bb2_1 main@_bb12_0)
                    (= main@%start.0.i_1 main@%start.3.i_1))
                (=> (and main@_bb2_1 main@_bb12_0)
                    (= main@%shadow.mem1.0_2 main@%shadow.mem1.0_1))
                (=> (and main@_bb2_1 main@_bb12_0)
                    (= main@%i.0.i_2 main@%i.0.i_1))
                (=> (and main@_bb2_1 main@_bb12_0)
                    (= main@%start.0.i_2 main@%start.0.i_1)))))
  (=> a!2
      (main@_bb2 main@%_4_0
                 main@%_3_0
                 main@%shadow.mem1.0_2
                 main@%i.0.i_2
                 main@%start.0.i_2
                 main@%str2.i_0)))))
(rule (let ((a!1 (and (main@_bb2 main@%_4_0
                           main@%_3_0
                           main@%shadow.mem1.0_0
                           main@%i.0.i_0
                           main@%start.0.i_0
                           main@%str2.i_0)
                true
                (= main@%_10_0 (+ main@%i.0.i_0 1))
                (= main@%_11_0 (+ main@%_4_0 (* main@%_10_0 1)))
                (or (<= main@%_4_0 0) (> main@%_11_0 0))
                (> main@%_4_0 0)
                (= main@%_12_0 (select main@%_3_0 main@%_11_0))
                (= main@%cond.i_0 (= main@%_12_0 0))
                (=> main@_bb3_0 (and main@_bb3_0 main@_bb2_0))
                main@_bb3_0
                (=> (and main@_bb3_0 main@_bb2_0) main@%cond.i_0)
                (=> (and main@_bb3_0 main@_bb2_0)
                    (= main@%start.1.i_0 main@%start.0.i_0))
                (=> (and main@_bb3_0 main@_bb2_0)
                    (= main@%start.1.i_1 main@%start.1.i_0)))))
  (=> a!1
      (main@_bb3 main@%start.1.i_1
                 main@%_4_0
                 main@%_10_0
                 main@%_3_0
                 main@%shadow.mem1.0_0
                 main@%i.0.i_0
                 main@%str2.i_0))))
(rule (let ((a!1 (=> main@_bb4_0
               (= main@%_18_0 (+ main@%_4_0 (* main@%start.1.i_0 1))))))
(let ((a!2 (and (main@_bb3 main@%start.1.i_0
                           main@%_4_0
                           main@%_10_0
                           main@%_3_0
                           main@%shadow.mem1.0_0
                           main@%i.0.i_0
                           main@%str2.i_0)
                true
                (= main@%_14_0 (+ main@%_4_0 (* main@%start.1.i_0 1)))
                (or (<= main@%_4_0 0) (> main@%_14_0 0))
                (> main@%_4_0 0)
                (= main@%_15_0 (select main@%_3_0 main@%_14_0))
                (= main@%_16_0 (= main@%_15_0 32))
                (=> main@_bb4_0 (and main@_bb4_0 main@_bb3_0))
                (=> (and main@_bb4_0 main@_bb3_0) (not main@%_16_0))
                a!1
                (=> main@_bb4_0 (or (<= main@%_4_0 0) (> main@%_18_0 0)))
                (=> main@_bb4_0 (> main@%_4_0 0))
                (=> main@_bb4_0 (= main@%_19_0 (select main@%_3_0 main@%_18_0)))
                (=> main@_bb4_0 (= main@%_20_0 (= main@%_19_0 9)))
                (=> |tuple(main@_bb4_0, main@.critedge.i_0)| main@_bb4_0)
                (=> |tuple(main@_bb3_0, main@.critedge.i_0)| main@_bb3_0)
                (=> main@.critedge.i_0
                    (or (and main@_bb4_0
                             |tuple(main@_bb4_0, main@.critedge.i_0)|)
                        (and main@_bb3_0
                             |tuple(main@_bb3_0, main@.critedge.i_0)|)))
                (=> (and main@_bb4_0 |tuple(main@_bb4_0, main@.critedge.i_0)|)
                    main@%_20_0)
                (=> (and main@_bb3_0 |tuple(main@_bb3_0, main@.critedge.i_0)|)
                    main@%_16_0)
                (=> main@.critedge.i_0 (= main@%_21_0 (+ main@%start.1.i_0 1)))
                (=> main@_bb3_1 (and main@_bb3_1 main@.critedge.i_0))
                main@_bb3_1
                (=> (and main@_bb3_1 main@.critedge.i_0)
                    (= main@%start.1.i_1 main@%_21_0))
                (=> (and main@_bb3_1 main@.critedge.i_0)
                    (= main@%start.1.i_2 main@%start.1.i_1)))))
  (=> a!2
      (main@_bb3 main@%start.1.i_2
                 main@%_4_0
                 main@%_10_0
                 main@%_3_0
                 main@%shadow.mem1.0_0
                 main@%i.0.i_0
                 main@%str2.i_0)))))
(rule (let ((a!1 (=> main@_bb4_0
               (= main@%_18_0 (+ main@%_4_0 (* main@%start.1.i_0 1)))))
      (a!2 (=> main@_bb5_0
               (= main@%_23_0 (+ main@%_4_0 (* main@%start.1.i_0 1))))))
(let ((a!3 (and (main@_bb3 main@%start.1.i_0
                           main@%_4_0
                           main@%_10_0
                           main@%_3_0
                           main@%shadow.mem1.0_0
                           main@%i.0.i_0
                           main@%str2.i_0)
                true
                (= main@%_14_0 (+ main@%_4_0 (* main@%start.1.i_0 1)))
                (or (<= main@%_4_0 0) (> main@%_14_0 0))
                (> main@%_4_0 0)
                (= main@%_15_0 (select main@%_3_0 main@%_14_0))
                (= main@%_16_0 (= main@%_15_0 32))
                (=> main@_bb4_0 (and main@_bb4_0 main@_bb3_0))
                (=> (and main@_bb4_0 main@_bb3_0) (not main@%_16_0))
                a!1
                (=> main@_bb4_0 (or (<= main@%_4_0 0) (> main@%_18_0 0)))
                (=> main@_bb4_0 (> main@%_4_0 0))
                (=> main@_bb4_0 (= main@%_19_0 (select main@%_3_0 main@%_18_0)))
                (=> main@_bb4_0 (= main@%_20_0 (= main@%_19_0 9)))
                (=> main@_bb5_0 (and main@_bb5_0 main@_bb4_0))
                (=> (and main@_bb5_0 main@_bb4_0) (not main@%_20_0))
                a!2
                (=> main@_bb5_0 (or (<= main@%_4_0 0) (> main@%_23_0 0)))
                (=> main@_bb5_0 (> main@%_4_0 0))
                (=> main@_bb5_0 (= main@%_24_0 (select main@%_3_0 main@%_23_0)))
                (=> main@_bb5_0 (= main@%_25_0 (= main@%_24_0 34)))
                (=> main@_bb5_0 (= main@%_26_0 (ite main@%_25_0 1 0)))
                (=> main@_bb5_0
                    (= main@%.start.1.i_0 (+ main@%start.1.i_0 main@%_26_0)))
                (=> main@_bb6_0 (and main@_bb6_0 main@_bb5_0))
                main@_bb6_0
                (=> (and main@_bb6_0 main@_bb5_0)
                    (= main@%j.0.i_0 main@%i.0.i_0))
                (=> (and main@_bb6_0 main@_bb5_0)
                    (= main@%j.0.i_1 main@%j.0.i_0)))))
  (=> a!3
      (main@_bb6 main@%j.0.i_1
                 main@%_4_0
                 main@%_10_0
                 main@%_3_0
                 main@%shadow.mem1.0_0
                 main@%i.0.i_0
                 main@%.start.1.i_0
                 main@%str2.i_0)))))
(rule (let ((a!1 (=> main@_bb7_0 (= main@%_30_0 (+ main@%_4_0 (* main@%j.0.i_0 1)))))
      (a!2 (=> main@_bb8_0 (= main@%_34_0 (+ main@%_4_0 (* main@%j.0.i_0 1)))))
      (a!3 (=> main@_bb9_0 (= main@%_40_0 (+ main@%_4_0 (* main@%j.0.i_0 1)))))
      (a!4 (= main@%_47_0 (+ (+ main@%str2.i_0 (* 0 2)) (* 0 1))))
      (a!5 (=> main@_bb11_0
               (= main@%_48_0 (+ main@%_4_0 (* main@%.start.1.i_0 1)))))
      (a!6 (= main@%_59_0 (+ (+ main@%str2.i_0 (* 0 2)) (* main@%_58_0 1))))
      (a!7 (=> main@_bb12_0 (= main@%_63_0 (+ main@%_4_0 (* main@%_10_0 1))))))
(let ((a!8 (and (main@_bb6 main@%j.0.i_0
                           main@%_4_0
                           main@%_10_0
                           main@%_3_0
                           main@%shadow.mem1.0_0
                           main@%i.0.i_0
                           main@%.start.1.i_0
                           main@%str2.i_0)
                true
                (= main@%_28_0 (> main@%j.0.i_0 0))
                (=> main@_bb7_0 (and main@_bb7_0 main@_bb6_0))
                (=> (and main@_bb7_0 main@_bb6_0) main@%_28_0)
                a!1
                (=> main@_bb7_0 (or (<= main@%_4_0 0) (> main@%_30_0 0)))
                (=> main@_bb7_0 (> main@%_4_0 0))
                (=> main@_bb7_0 (= main@%_31_0 (select main@%_3_0 main@%_30_0)))
                (=> main@_bb7_0 (= main@%_32_0 (= main@%_31_0 32)))
                (=> main@_bb8_0 (and main@_bb8_0 main@_bb7_0))
                (=> (and main@_bb8_0 main@_bb7_0) (not main@%_32_0))
                a!2
                (=> main@_bb8_0 (or (<= main@%_4_0 0) (> main@%_34_0 0)))
                (=> main@_bb8_0 (> main@%_4_0 0))
                (=> main@_bb8_0 (= main@%_35_0 (select main@%_3_0 main@%_34_0)))
                (=> main@_bb8_0 (= main@%_36_0 (= main@%_35_0 9)))
                (=> |tuple(main@_bb8_0, main@.critedge1.i_0)| main@_bb8_0)
                (=> |tuple(main@_bb6_0, main@.critedge1.i_0)| main@_bb6_0)
                (=> main@.critedge1.i_0
                    (or (and main@_bb8_0
                             |tuple(main@_bb8_0, main@.critedge1.i_0)|)
                        (and main@_bb6_0
                             |tuple(main@_bb6_0, main@.critedge1.i_0)|)))
                (=> (and main@_bb8_0 |tuple(main@_bb8_0, main@.critedge1.i_0)|)
                    (not main@%_36_0))
                (=> (and main@_bb6_0 |tuple(main@_bb6_0, main@.critedge1.i_0)|)
                    (not main@%_28_0))
                (=> main@.critedge1.i_0 (= main@%_38_0 (> main@%j.0.i_0 0)))
                (=> main@_bb9_0 (and main@_bb9_0 main@.critedge1.i_0))
                (=> (and main@_bb9_0 main@.critedge1.i_0) main@%_38_0)
                a!3
                (=> main@_bb9_0 (or (<= main@%_4_0 0) (> main@%_40_0 0)))
                (=> main@_bb9_0 (> main@%_4_0 0))
                (=> main@_bb9_0 (= main@%_41_0 (select main@%_3_0 main@%_40_0)))
                (=> main@_bb9_0 (= main@%_42_0 (= main@%_41_0 34)))
                (=> main@_bb9_0 (= main@%_43_0 (ite main@%_42_0 (- 1) 0)))
                (=> main@_bb9_0
                    (= main@%.j.0.i_0 (+ main@%j.0.i_0 main@%_43_0)))
                (=> |tuple(main@.critedge1.i_0, main@_bb10_0)|
                    main@.critedge1.i_0)
                (=> main@_bb10_0
                    (or (and main@_bb10_0 main@_bb9_0)
                        (and main@.critedge1.i_0
                             |tuple(main@.critedge1.i_0, main@_bb10_0)|)))
                (=> (and main@_bb10_0 main@_bb9_0)
                    (= main@%j.1.i_0 main@%.j.0.i_0))
                (=> (and main@.critedge1.i_0
                         |tuple(main@.critedge1.i_0, main@_bb10_0)|)
                    (not main@%_38_0))
                (=> (and main@.critedge1.i_0
                         |tuple(main@.critedge1.i_0, main@_bb10_0)|)
                    (= main@%j.1.i_1 main@%j.0.i_0))
                (=> (and main@_bb10_0 main@_bb9_0)
                    (= main@%j.1.i_2 main@%j.1.i_0))
                (=> (and main@.critedge1.i_0
                         |tuple(main@.critedge1.i_0, main@_bb10_0)|)
                    (= main@%j.1.i_2 main@%j.1.i_1))
                (=> main@_bb10_0
                    (= main@%_45_0 (< main@%j.1.i_2 main@%.start.1.i_0)))
                (=> main@_bb10_0 (not main@%_45_0))
                (=> main@_bb11_0 (and main@_bb11_0 main@_bb10_0))
                (=> main@_bb11_0 a!4)
                (=> main@_bb11_0 (or (<= main@%str2.i_0 0) (> main@%_47_0 0)))
                a!5
                (=> main@_bb11_0 (or (<= main@%_4_0 0) (> main@%_48_0 0)))
                (=> main@_bb11_0
                    (= main@%_49_0 (- main@%j.1.i_2 main@%.start.1.i_0)))
                (=> main@_bb11_0 (= main@%_50_0 (+ main@%_49_0 1)))
                (=> main@_bb11_0
                    (= main@%_52_0 (- main@%j.1.i_2 main@%.start.1.i_0)))
                (=> main@_bb11_0 (= main@%_53_0 (+ main@%_52_0 1)))
                (=> main@_bb11_0 (= main@%_54_0 (< main@%_53_0 2)))
                (=> main@_bb11_0 (= main@%_55_0 (ite main@%_54_0 1 0)))
                (=> main@postcall2_0 (and main@postcall2_0 main@_bb11_0))
                (=> (and main@postcall2_0 main@_bb11_0) main@%_56_0)
                (__VERIFIER_assert main@postcall2_0 false false main@%_55_0)
                (=> main@postcall2_0
                    (= main@%_57_0 (- main@%j.1.i_2 main@%.start.1.i_0)))
                (=> main@postcall2_0 (= main@%_58_0 (+ main@%_57_0 1)))
                (=> main@postcall2_0 a!6)
                (=> main@postcall2_0
                    (or (<= main@%str2.i_0 0) (> main@%_59_0 0)))
                (=> main@postcall2_0 (> main@%str2.i_0 0))
                (=> main@postcall2_0
                    (= main@%_60_0 (store main@%shadow.mem1.0_0 main@%_59_0 0)))
                (=> main@postcall2_0 (= main@%_61_0 (+ main@%i.0.i_0 2)))
                (=> main@_bb12_0 (and main@_bb12_0 main@postcall2_0))
                (=> (and main@_bb12_0 main@postcall2_0)
                    (= main@%shadow.mem1.1_0 main@%_60_0))
                (=> (and main@_bb12_0 main@postcall2_0)
                    (= main@%start.3.i_0 main@%_61_0))
                (=> (and main@_bb12_0 main@postcall2_0)
                    (= main@%shadow.mem1.1_1 main@%shadow.mem1.1_0))
                (=> (and main@_bb12_0 main@postcall2_0)
                    (= main@%start.3.i_1 main@%start.3.i_0))
                a!7
                (=> main@_bb12_0 (or (<= main@%_4_0 0) (> main@%_63_0 0)))
                (=> main@_bb12_0 (> main@%_4_0 0))
                (=> main@_bb12_0
                    (= main@%_64_0 (select main@%_3_0 main@%_63_0)))
                (=> main@_bb12_0 (= main@%_65_0 (= main@%_64_0 0)))
                (=> main@_bb12_0 (not main@%_65_0))
                (=> main@_bb2_0 (and main@_bb2_0 main@_bb12_0))
                main@_bb2_0
                (=> (and main@_bb2_0 main@_bb12_0)
                    (= main@%shadow.mem1.0_1 main@%shadow.mem1.1_1))
                (=> (and main@_bb2_0 main@_bb12_0)
                    (= main@%i.0.i_1 main@%_10_0))
                (=> (and main@_bb2_0 main@_bb12_0)
                    (= main@%start.0.i_0 main@%start.3.i_1))
                (=> (and main@_bb2_0 main@_bb12_0)
                    (= main@%shadow.mem1.0_2 main@%shadow.mem1.0_1))
                (=> (and main@_bb2_0 main@_bb12_0)
                    (= main@%i.0.i_2 main@%i.0.i_1))
                (=> (and main@_bb2_0 main@_bb12_0)
                    (= main@%start.0.i_1 main@%start.0.i_0)))))
  (=> a!8
      (main@_bb2 main@%_4_0
                 main@%_3_0
                 main@%shadow.mem1.0_2
                 main@%i.0.i_2
                 main@%start.0.i_1
                 main@%str2.i_0)))))
(rule (let ((a!1 (=> main@_bb7_0 (= main@%_30_0 (+ main@%_4_0 (* main@%j.0.i_0 1)))))
      (a!2 (=> main@_bb8_0 (= main@%_34_0 (+ main@%_4_0 (* main@%j.0.i_0 1))))))
(let ((a!3 (and (main@_bb6 main@%j.0.i_0
                           main@%_4_0
                           main@%_10_0
                           main@%_3_0
                           main@%shadow.mem1.0_0
                           main@%i.0.i_0
                           main@%.start.1.i_0
                           main@%str2.i_0)
                true
                (= main@%_28_0 (> main@%j.0.i_0 0))
                (=> main@_bb7_0 (and main@_bb7_0 main@_bb6_0))
                (=> (and main@_bb7_0 main@_bb6_0) main@%_28_0)
                a!1
                (=> main@_bb7_0 (or (<= main@%_4_0 0) (> main@%_30_0 0)))
                (=> main@_bb7_0 (> main@%_4_0 0))
                (=> main@_bb7_0 (= main@%_31_0 (select main@%_3_0 main@%_30_0)))
                (=> main@_bb7_0 (= main@%_32_0 (= main@%_31_0 32)))
                (=> main@_bb8_0 (and main@_bb8_0 main@_bb7_0))
                (=> (and main@_bb8_0 main@_bb7_0) (not main@%_32_0))
                a!2
                (=> main@_bb8_0 (or (<= main@%_4_0 0) (> main@%_34_0 0)))
                (=> main@_bb8_0 (> main@%_4_0 0))
                (=> main@_bb8_0 (= main@%_35_0 (select main@%_3_0 main@%_34_0)))
                (=> main@_bb8_0 (= main@%_36_0 (= main@%_35_0 9)))
                (=> |tuple(main@_bb8_0, main@.critedge2.i_0)| main@_bb8_0)
                (=> |tuple(main@_bb7_0, main@.critedge2.i_0)| main@_bb7_0)
                (=> main@.critedge2.i_0
                    (or (and main@_bb8_0
                             |tuple(main@_bb8_0, main@.critedge2.i_0)|)
                        (and main@_bb7_0
                             |tuple(main@_bb7_0, main@.critedge2.i_0)|)))
                (=> (and main@_bb8_0 |tuple(main@_bb8_0, main@.critedge2.i_0)|)
                    main@%_36_0)
                (=> (and main@_bb7_0 |tuple(main@_bb7_0, main@.critedge2.i_0)|)
                    main@%_32_0)
                (=> main@.critedge2.i_0 (= main@%_37_0 (+ main@%j.0.i_0 (- 1))))
                (=> main@_bb6_1 (and main@_bb6_1 main@.critedge2.i_0))
                main@_bb6_1
                (=> (and main@_bb6_1 main@.critedge2.i_0)
                    (= main@%j.0.i_1 main@%_37_0))
                (=> (and main@_bb6_1 main@.critedge2.i_0)
                    (= main@%j.0.i_2 main@%j.0.i_1)))))
  (=> a!3
      (main@_bb6 main@%j.0.i_2
                 main@%_4_0
                 main@%_10_0
                 main@%_3_0
                 main@%shadow.mem1.0_0
                 main@%i.0.i_0
                 main@%.start.1.i_0
                 main@%str2.i_0)))))
(rule (let ((a!1 (=> main@_bb7_0 (= main@%_30_0 (+ main@%_4_0 (* main@%j.0.i_0 1)))))
      (a!2 (=> main@_bb8_0 (= main@%_34_0 (+ main@%_4_0 (* main@%j.0.i_0 1)))))
      (a!3 (=> main@_bb9_0 (= main@%_40_0 (+ main@%_4_0 (* main@%j.0.i_0 1)))))
      (a!4 (=> main@_bb11_0 (= main@%_47_0 (+ main@%str2.i_0 (* 0 2) (* 0 1)))))
      (a!5 (=> main@_bb11_0
               (= main@%_48_0 (+ main@%_4_0 (* main@%.start.1.i_0 1))))))
(let ((a!6 (and (main@_bb6 main@%j.0.i_0
                           main@%_4_0
                           main@%_10_0
                           main@%_3_0
                           main@%shadow.mem1.0_0
                           main@%i.0.i_0
                           main@%.start.1.i_0
                           main@%str2.i_0)
                true
                (= main@%_28_0 (> main@%j.0.i_0 0))
                (=> main@_bb7_0 (and main@_bb7_0 main@_bb6_0))
                (=> (and main@_bb7_0 main@_bb6_0) main@%_28_0)
                a!1
                (=> main@_bb7_0 (or (<= main@%_4_0 0) (> main@%_30_0 0)))
                (=> main@_bb7_0 (> main@%_4_0 0))
                (=> main@_bb7_0 (= main@%_31_0 (select main@%_3_0 main@%_30_0)))
                (=> main@_bb7_0 (= main@%_32_0 (= main@%_31_0 32)))
                (=> main@_bb8_0 (and main@_bb8_0 main@_bb7_0))
                (=> (and main@_bb8_0 main@_bb7_0) (not main@%_32_0))
                a!2
                (=> main@_bb8_0 (or (<= main@%_4_0 0) (> main@%_34_0 0)))
                (=> main@_bb8_0 (> main@%_4_0 0))
                (=> main@_bb8_0 (= main@%_35_0 (select main@%_3_0 main@%_34_0)))
                (=> main@_bb8_0 (= main@%_36_0 (= main@%_35_0 9)))
                (=> |tuple(main@_bb8_0, main@.critedge1.i_0)| main@_bb8_0)
                (=> |tuple(main@_bb6_0, main@.critedge1.i_0)| main@_bb6_0)
                (=> main@.critedge1.i_0
                    (or (and main@_bb8_0
                             |tuple(main@_bb8_0, main@.critedge1.i_0)|)
                        (and main@_bb6_0
                             |tuple(main@_bb6_0, main@.critedge1.i_0)|)))
                (=> (and main@_bb8_0 |tuple(main@_bb8_0, main@.critedge1.i_0)|)
                    (not main@%_36_0))
                (=> (and main@_bb6_0 |tuple(main@_bb6_0, main@.critedge1.i_0)|)
                    (not main@%_28_0))
                (=> main@.critedge1.i_0 (= main@%_38_0 (> main@%j.0.i_0 0)))
                (=> main@_bb9_0 (and main@_bb9_0 main@.critedge1.i_0))
                (=> (and main@_bb9_0 main@.critedge1.i_0) main@%_38_0)
                a!3
                (=> main@_bb9_0 (or (<= main@%_4_0 0) (> main@%_40_0 0)))
                (=> main@_bb9_0 (> main@%_4_0 0))
                (=> main@_bb9_0 (= main@%_41_0 (select main@%_3_0 main@%_40_0)))
                (=> main@_bb9_0 (= main@%_42_0 (= main@%_41_0 34)))
                (=> main@_bb9_0 (= main@%_43_0 (ite main@%_42_0 (- 1) 0)))
                (=> main@_bb9_0
                    (= main@%.j.0.i_0 (+ main@%j.0.i_0 main@%_43_0)))
                (=> |tuple(main@.critedge1.i_0, main@_bb10_0)|
                    main@.critedge1.i_0)
                (=> main@_bb10_0
                    (or (and main@_bb10_0 main@_bb9_0)
                        (and main@.critedge1.i_0
                             |tuple(main@.critedge1.i_0, main@_bb10_0)|)))
                (=> (and main@_bb10_0 main@_bb9_0)
                    (= main@%j.1.i_0 main@%.j.0.i_0))
                (=> (and main@.critedge1.i_0
                         |tuple(main@.critedge1.i_0, main@_bb10_0)|)
                    (not main@%_38_0))
                (=> (and main@.critedge1.i_0
                         |tuple(main@.critedge1.i_0, main@_bb10_0)|)
                    (= main@%j.1.i_1 main@%j.0.i_0))
                (=> (and main@_bb10_0 main@_bb9_0)
                    (= main@%j.1.i_2 main@%j.1.i_0))
                (=> (and main@.critedge1.i_0
                         |tuple(main@.critedge1.i_0, main@_bb10_0)|)
                    (= main@%j.1.i_2 main@%j.1.i_1))
                (=> main@_bb10_0
                    (= main@%_45_0 (< main@%j.1.i_2 main@%.start.1.i_0)))
                (=> main@_bb10_0 (not main@%_45_0))
                (=> main@_bb11_0 (and main@_bb11_0 main@_bb10_0))
                a!4
                (=> main@_bb11_0 (or (<= main@%str2.i_0 0) (> main@%_47_0 0)))
                a!5
                (=> main@_bb11_0 (or (<= main@%_4_0 0) (> main@%_48_0 0)))
                (=> main@_bb11_0
                    (= main@%_49_0 (- main@%j.1.i_2 main@%.start.1.i_0)))
                (=> main@_bb11_0 (= main@%_50_0 (+ main@%_49_0 1)))
                (=> main@_bb11_0
                    (= main@%_52_0 (- main@%j.1.i_2 main@%.start.1.i_0)))
                (=> main@_bb11_0 (= main@%_53_0 (+ main@%_52_0 1)))
                (=> main@_bb11_0 (= main@%_54_0 (< main@%_53_0 2)))
                (=> main@_bb11_0 (= main@%_55_0 (ite main@%_54_0 1 0)))
                (=> main@precall3_0 (and main@precall3_0 main@_bb11_0))
                (=> (and main@precall3_0 main@_bb11_0) (not main@%_56_0))
                (=> main@__VERIFIER_assert_0
                    (and main@__VERIFIER_assert_0 main@precall3_0))
                (=> main@__VERIFIER_assert_0 (= main@%_6_0 (= main@%_55_0 0)))
                (=> main@__VERIFIER_assert_0 main@%_6_0)
                (=> main@_bb_0 (and main@_bb_0 main@__VERIFIER_assert_0))
                (=> main@verifier.error_0
                    (and main@verifier.error_0 main@_bb_0))
                (=> main@verifier.error.split_0
                    (and main@verifier.error.split_0 main@verifier.error_0))
                main@verifier.error.split_0)))
  (=> a!6 main@verifier.error.split))))
(query main@verifier.error.split)

